p td 80 80
0 16
1 73
1 10
2 5
3 21
4 6
5 18
6 7
7 70
7 56
8 62
9 10
9 65
11 33
11 57
12 30
12 75
13 48
14 37
14 36
15 74
16 60
17 43
17 26
17 73
18 19
18 50
18 60
19 68
20 21
21 64
21 63
22 23
23 74
23 72
24 25
25 28
25 35
27 28
27 46
27 71
28 44
29 39
30 31
31 72
32 42
32 78
33 34
33 51
34 35
37 38
37 39
38 72
38 53
39 59
40 56
40 52
41 42
42 43
42 45
43 44
43 68
44 63
47 78
48 63
49 54
54 55
54 62
55 68
58 59
58 70
61 62
64 65
66 78
67 68
69 70
74 75
74 79
76 77
77 78
